15
1 0 2
2 0 1
2 1 6
3 0 6
3 1 4
3 2 2
4 0 5
4 1 5
4 2 6
4 3 1
5 0 6
5 1 4
5 2 1
5 3 1
5 4 2
6 0 2
6 1 3
6 2 3
6 3 2
6 4 6
6 5 5
7 0 5
7 1 5
7 2 2
7 3 4
7 4 5
7 5 5
7 6 2
8 0 1
8 1 6
8 2 6
8 3 3
8 4 1
8 5 1
8 6 6
8 7 6
9 0 3
9 1 4
9 2 4
9 3 1
9 4 3
9 5 2
9 6 3
9 7 3
9 8 3
10 0 4
10 1 2
10 2 3
10 3 5
10 4 6
10 5 1
10 6 4
10 7 3
10 8 1
10 9 3
11 0 5
11 1 4
11 2 1
11 3 6
11 4 5
11 5 1
11 6 6
11 7 3
11 8 5
11 9 1
11 10 6
12 0 6
12 1 4
12 2 3
12 3 1
12 4 5
12 5 5
12 6 4
12 7 5
12 8 2
12 9 1
12 10 1
12 11 6
13 0 2
13 1 5
13 2 4
13 3 2
13 4 1
13 5 2
13 6 5
13 7 1
13 8 2
13 9 4
13 10 2
13 11 4
13 12 2
14 0 6
14 1 5
14 2 3
14 3 4
14 4 2
14 5 2
14 6 6
14 7 6
14 8 2
14 9 4
14 10 3
14 11 2
14 12 5
14 13 1
